110646
110646
110646
108071
105290
105290
105290
104437
104437
100287
100287
100287
100287
100287
93547.2
93094.9
93094.9
93094.9
93094.9
92709.2
92709.2
92709.2
91721.9
91721.9
89502.3
89368.1
89368.1
89287.6
88316.2
88316.2
88316.2
88316.2
84534.5
84534.5
84534.5
83149.8
83149.8
83149.8
83149.8
83149.8
83149.8
83149.8
82938.7
82482.3
82482.3
81550
81550
81220.9
81220.9
81220.9
79725.5
79725.5
78879.4
77989.3
77989.3
77989.3
77989.3
76404.5
76404.5
76404.5
76404.5
76404.5
76404.5
75472.4
75472.4
75472.4
75472.4
75472.4
75472.4
75472.4
75062.3
75062.3
74568.6
74568.6
74568.6
74568.6
74568.6
74568.6
74505
74505
71978.8
71978.8
71456.8
69105.8
69105.8
69105.8
69105.8
69105.8
69105.8
69105.8
69105.8
69105.8
69105.8
69105.8
69105.8
69105.8
69105.8
69105.8
68677.9
68677.9
